(set-info :smt-lib-version 2.6)
(set-logic AUFBVFPDTNIRA)
(set-info :source |
Generated by: AdaCore
Generated on: 2020-03-06
Generator: SPARK
Application: Program verification for Ada
Target solver: CVC4
|)
(set-info :license "https://creativecommons.org/licenses/by/4.0/")
(set-info :category "industrial")
(set-info :status unknown)
;;; generated by SMT-LIB2 driver
;;; SMT-LIB2 driver: bit-vectors, common part
;;; SMT-LIB2: integer arithmetic
(declare-sort string 0)

(declare-datatypes ((tuple0 0))
(((Tuple0))))
(declare-sort us_private 0)

(declare-fun private__bool_eq (us_private us_private) Bool)

(declare-const us_null_ext__ us_private)

(declare-sort us_type_of_heap 0)

(declare-datatypes ((us_type_of_heap__ref 0))
(((us_type_of_heap__refqtmk (us_type_of_heap__content us_type_of_heap)))))
(declare-sort us_image 0)

(declare-datatypes ((int__ref 0))
(((int__refqtmk (int__content Int)))))
(declare-datatypes ((bool__ref 0))
(((bool__refqtmk (bool__content Bool)))))
(declare-datatypes ((us_fixed__ref 0))
(((us_fixed__refqtmk (us_fixed__content Int)))))
(declare-datatypes ((real__ref 0))
(((real__refqtmk (real__content Real)))))
(declare-datatypes ((us_private__ref 0))
(((us_private__refqtmk (us_private__content us_private)))))
(define-fun int__ref___projection ((a int__ref)) Int (int__content a))

(define-fun us_fixed__ref___projection ((a us_fixed__ref)) Int (us_fixed__content
                                                               a))

(define-fun bool__ref___projection ((a bool__ref)) Bool (bool__content a))

(define-fun real__ref___projection ((a real__ref)) Real (real__content a))

(define-fun us_private__ref___projection ((a us_private__ref)) us_private 
  (us_private__content a))

(declare-fun nth ((_ BitVec 16) Int) Bool)

(declare-fun lsr ((_ BitVec 16) Int) (_ BitVec 16))

(declare-fun asr ((_ BitVec 16) Int) (_ BitVec 16))

(declare-fun lsl ((_ BitVec 16) Int) (_ BitVec 16))

(define-fun abs1 ((x Int)) Int (ite (<= 0 x) x (- x)))

;; Abs_le
  (assert
  (forall ((x Int) (y Int)) (= (<= (abs1 x) y) (and (<= (- y) x) (<= x y)))))

;; Abs_pos
  (assert (forall ((x Int)) (<= 0 (abs1 x))))

;; Div_unique
  (assert
  (forall ((x Int) (y Int) (q Int))
  (=> (< 0 y) (=> (and (<= (* q y) x) (< x (+ (* q y) y))) (= (div x y) q)))))

;; Div_bound
  (assert
  (forall ((x Int) (y Int))
  (=> (and (<= 0 x) (< 0 y)) (and (<= 0 (div x y)) (<= (div x y) x)))))

;; Div_inf
  (assert
  (forall ((x Int) (y Int)) (=> (and (<= 0 x) (< x y)) (= (div x y) 0))))

;; Div_inf_neg
  (assert
  (forall ((x Int) (y Int))
  (=> (and (< 0 x) (<= x y)) (= (div (- x) y) (- 1)))))

;; Mod_0
  (assert (forall ((y Int)) (=> (not (= y 0)) (= (mod 0 y) 0))))

;; Div_1_left
  (assert (forall ((y Int)) (=> (< 1 y) (= (div 1 y) 0))))

;; Div_minus1_left
  (assert (forall ((y Int)) (=> (< 1 y) (= (div (- 1) y) (- 1)))))

;; Mod_1_left
  (assert (forall ((y Int)) (=> (< 1 y) (= (mod 1 y) 1))))

;; Mod_minus1_left
  (assert
  (forall ((y Int))
  (! (=> (< 1 y) (= (mod (- 1) y) (- y 1))) :pattern ((mod (- 1) y)) )))

;; Div_mult
  (assert
  (forall ((x Int) (y Int) (z Int))
  (! (=> (< 0 x) (= (div (+ (* x y) z) x) (+ y (div z x)))) :pattern ((div (+ (* x y) z) x)) )))

;; Mod_mult
  (assert
  (forall ((x Int) (y Int) (z Int))
  (! (=> (< 0 x) (= (mod (+ (* x y) z) x) (mod z x))) :pattern ((mod (+ (* x y) z) x)) )))

(declare-fun rotate_right1 ((_ BitVec 16) Int) (_ BitVec 16))

(declare-fun rotate_left1 ((_ BitVec 16) Int) (_ BitVec 16))

(declare-fun pow2 (Int) Int)

(define-fun to_int1 ((x (_ BitVec 16))) Int (ite (bvsge x (_ bv0 16))
                                            (bv2nat x)
                                            (- (- 65536 (bv2nat x)))))

(define-fun uint_in_range ((i Int)) Bool (and (<= 0 i) (<= i 65535)))

;; lsr_bv_is_lsr
  (assert
  (forall ((x (_ BitVec 16)) (n (_ BitVec 16)))
  (= (bvlshr x n) (lsr x (bv2nat n)))))

;; asr_bv_is_asr
  (assert
  (forall ((x (_ BitVec 16)) (n (_ BitVec 16)))
  (= (bvashr x n) (asr x (bv2nat n)))))

;; lsl_bv_is_lsl
  (assert
  (forall ((x (_ BitVec 16)) (n (_ BitVec 16)))
  (= (bvshl x n) (lsl x (bv2nat n)))))

;; rotate_left_bv_is_rotate_left
  (assert
  (forall ((v (_ BitVec 16)) (n (_ BitVec 16)))
  (= (bvor (bvshl v (bvurem n (_ bv16 16))) (bvlshr v (bvsub (_ bv16 16) (bvurem n (_ bv16 16))))) 
  (rotate_left1 v (bv2nat n)))))

;; rotate_right_bv_is_rotate_right
  (assert
  (forall ((v (_ BitVec 16)) (n (_ BitVec 16)))
  (= (bvor (bvlshr v (bvurem n (_ bv16 16))) (bvshl v (bvsub (_ bv16 16) (bvurem n (_ bv16 16))))) 
  (rotate_right1 v (bv2nat n)))))

(declare-fun nth_bv ((_ BitVec 16) (_ BitVec 16)) Bool)

;; nth_bv_def
  (assert
  (forall ((x (_ BitVec 16)) (i (_ BitVec 16)))
  (= (= (nth_bv x i) true) (not (= (bvand (bvlshr x i) #x0001) #x0000)))))

;; Nth_bv_is_nth
  (assert
  (forall ((x (_ BitVec 16)) (i (_ BitVec 16)))
  (= (nth x (bv2nat i)) (nth_bv x i))))

;; Nth_bv_is_nth2
  (assert
  (forall ((x (_ BitVec 16)) (i Int))
  (=> (and (<= 0 i) (< i 65536)) (= (nth_bv x ((_ int2bv 16) i)) (nth x i)))))

(declare-fun eq_sub_bv ((_ BitVec 16) (_ BitVec 16) (_ BitVec 16)
  (_ BitVec 16)) Bool)

;; eq_sub_bv_def
  (assert
  (forall ((a (_ BitVec 16)) (b (_ BitVec 16)) (i (_ BitVec 16))
  (n (_ BitVec 16)))
  (let ((mask (bvshl (bvsub (bvshl #x0001 n) #x0001) i)))
  (= (eq_sub_bv a b i n) (= (bvand b mask) (bvand a mask))))))

(define-fun eq_sub ((a (_ BitVec 16)) (b (_ BitVec 16)) (i Int)
  (n Int)) Bool (forall ((j Int))
                (=> (and (<= i j) (< j (+ i n))) (= (nth a j) (nth b j)))))

;; eq_sub_equiv
  (assert
  (forall ((a (_ BitVec 16)) (b (_ BitVec 16)) (i (_ BitVec 16))
  (n (_ BitVec 16)))
  (= (eq_sub a b (bv2nat i) (bv2nat n)) (eq_sub_bv a b i n))))

(declare-datatypes ((t__ref 0))
(((t__refqtmk (t__content (_ BitVec 16))))))
(declare-fun power ((_ BitVec 16) Int) (_ BitVec 16))

(define-fun bv_min ((x (_ BitVec 16))
  (y (_ BitVec 16))) (_ BitVec 16) (ite (bvule x y) x y))

(define-fun bv_max ((x (_ BitVec 16))
  (y (_ BitVec 16))) (_ BitVec 16) (ite (bvule x y) y x))

(define-fun min ((x Int) (y Int)) Int (ite (<= x y) x y))

(define-fun max ((x Int) (y Int)) Int (ite (<= x y) y x))

;; Min_r
  (assert (forall ((x Int) (y Int)) (=> (<= y x) (= (min x y) y))))

;; Max_l
  (assert (forall ((x Int) (y Int)) (=> (<= y x) (= (max x y) x))))

;; Min_comm
  (assert (forall ((x Int) (y Int)) (= (min x y) (min y x))))

;; Max_comm
  (assert (forall ((x Int) (y Int)) (= (max x y) (max y x))))

;; Min_assoc
  (assert
  (forall ((x Int) (y Int) (z Int)) (= (min (min x y) z) (min x (min y z)))))

;; Max_assoc
  (assert
  (forall ((x Int) (y Int) (z Int)) (= (max (max x y) z) (max x (max y z)))))

(declare-sort integer 0)

(declare-fun integerqtint (integer) Int)

;; integer'axiom
  (assert
  (forall ((i integer))
  (and (<= (- 2147483648) (integerqtint i)) (<= (integerqtint i) 2147483647))))

(define-fun in_range ((x Int)) Bool (and (<= (- 2147483648) x)
                                    (<= x 2147483647)))

(declare-fun attr__ATTRIBUTE_IMAGE (Int) us_image)

(declare-fun attr__ATTRIBUTE_VALUE__pre_check (us_image) Bool)

(declare-fun attr__ATTRIBUTE_VALUE (us_image) Int)

(declare-fun user_eq (integer integer) Bool)

(declare-const dummy integer)

(declare-datatypes ((integer__ref 0))
(((integer__refqtmk (integer__content integer)))))
(define-fun integer__ref_integer__content__projection ((a integer__ref)) integer 
  (integer__content a))

(define-fun to_rep ((x integer)) Int (integerqtint x))

(declare-fun of_rep (Int) integer)

;; inversion_axiom
  (assert
  (forall ((x integer)) (! (= (of_rep (to_rep x)) x) :pattern ((to_rep x)) )))

;; range_axiom
  (assert
  (forall ((x integer)) (! (in_range (to_rep x)) :pattern ((to_rep x)) )))

;; coerce_axiom
  (assert
  (forall ((x Int))
  (! (=> (in_range x) (= (to_rep (of_rep x)) x)) :pattern ((to_rep
                                                           (of_rep x))) )))

(declare-sort ar_index 0)

(declare-const attr__ATTRIBUTE_MODULUS (_ BitVec 16))

(declare-fun attr__ATTRIBUTE_IMAGE1 ((_ BitVec 16)) us_image)

(declare-fun attr__ATTRIBUTE_VALUE__pre_check1 (us_image) Bool)

(declare-fun attr__ATTRIBUTE_VALUE1 (us_image) (_ BitVec 16))

(declare-fun user_eq1 (ar_index ar_index) Bool)

(declare-const dummy1 ar_index)

(declare-datatypes ((ar_index__ref 0))
(((ar_index__refqtmk (ar_index__content ar_index)))))
(define-fun ar_index__ref_ar_index__content__projection ((a ar_index__ref)) ar_index 
  (ar_index__content a))

(declare-fun to_rep1 (ar_index) (_ BitVec 16))

(declare-fun of_rep1 ((_ BitVec 16)) ar_index)

;; inversion_axiom
  (assert
  (forall ((x ar_index))
  (! (= (of_rep1 (to_rep1 x)) x) :pattern ((to_rep1 x)) )))

;; range_axiom
  (assert true)

;; coerce_axiom
  (assert
  (forall ((x (_ BitVec 16)))
  (! (= (to_rep1 (of_rep1 x)) x) :pattern ((to_rep1 (of_rep1 x))) )))

(define-fun to_int2 ((x ar_index)) Int (bv2nat (to_rep1 x)))

;; range_int_axiom
  (assert
  (forall ((x ar_index)) (! (uint_in_range
  (to_int2 x)) :pattern ((to_int2 x)) )))

(declare-datatypes ((map__ref 0))
(((map__refqtmk (map__content (Array (_ BitVec 16) integer))))))
(declare-fun slide ((Array (_ BitVec 16) integer) (_ BitVec 16)
  (_ BitVec 16)) (Array (_ BitVec 16) integer))

;; slide_eq
  (assert
  (forall ((a (Array (_ BitVec 16) integer)))
  (forall ((first (_ BitVec 16)))
  (! (= (slide a first first) a) :pattern ((slide a first first)) ))))

;; slide_def
  (assert
  (forall ((a (Array (_ BitVec 16) integer)))
  (forall ((old_first (_ BitVec 16)))
  (forall ((new_first (_ BitVec 16)))
  (forall ((i (_ BitVec 16)))
  (! (= (select (slide a old_first new_first) i) (select a (bvsub i (bvsub new_first old_first)))) :pattern ((select 
  (slide a old_first new_first) i)) ))))))

(define-fun bool_eq ((a (Array (_ BitVec 16) integer))
  (a__first (_ BitVec 16)) (a__last (_ BitVec 16))
  (b (Array (_ BitVec 16) integer)) (b__first (_ BitVec 16))
  (b__last (_ BitVec 16))) Bool (ite (and
                                     (ite (bvule a__first a__last)
                                     (and (bvule b__first b__last)
                                     (= (bvsub a__last a__first) (bvsub b__last b__first)))
                                     (bvugt b__first b__last))
                                     (forall ((temp___idx_154 (_ BitVec 16)))
                                     (=>
                                     (and (bvule a__first temp___idx_154)
                                     (bvule temp___idx_154 a__last))
                                     (= (to_rep (select a temp___idx_154)) 
                                     (to_rep
                                     (select b (bvadd (bvsub b__first a__first) temp___idx_154)))))))
                                true false))

;; bool_eq_rev
  (assert
  (forall ((a (Array (_ BitVec 16) integer))
  (b (Array (_ BitVec 16) integer)))
  (forall ((a__first (_ BitVec 16)) (a__last (_ BitVec 16))
  (b__first (_ BitVec 16)) (b__last (_ BitVec 16)))
  (=> (= (bool_eq b b__first b__last a a__first a__last) true)
  (and
  (ite (bvule a__first a__last)
  (and (bvule b__first b__last)
  (= (bvsub a__last a__first) (bvsub b__last b__first)))
  (bvugt b__first b__last))
  (forall ((temp___idx_154 (_ BitVec 16)))
  (=> (and (bvule a__first temp___idx_154) (bvule temp___idx_154 a__last))
  (= (to_rep (select a temp___idx_154)) (to_rep
                                        (select b (bvadd (bvsub b__first a__first) temp___idx_154)))))))))))

(declare-sort t 0)

(declare-fun first (t) ar_index)

(declare-fun last (t) ar_index)

(declare-fun mk ((_ BitVec 16) (_ BitVec 16)) t)

;; mk_def
  (assert
  (forall ((f (_ BitVec 16)) (l (_ BitVec 16)))
  (! (and (= (to_rep1 (first (mk f l))) f) (= (to_rep1 (last (mk f l))) l)) :pattern (
  (mk f l)) )))

(define-fun dynamic_property ((range_first (_ BitVec 16))
  (range_last (_ BitVec 16)) (low (_ BitVec 16))
  (high (_ BitVec 16))) Bool true)

(declare-datatypes ((us_t 0))
(((us_tqtmk (elts (Array (_ BitVec 16) integer))(rt t)))))
(define-fun to_array ((a us_t)) (Array (_ BitVec 16) integer) (elts a))

(define-fun of_array ((a (Array (_ BitVec 16) integer)) (f (_ BitVec 16))
  (l (_ BitVec 16))) us_t (us_tqtmk a (mk f l)))

(define-fun first1 ((a us_t)) (_ BitVec 16) (to_rep1 (first (rt a))))

(define-fun last1 ((a us_t)) (_ BitVec 16) (to_rep1 (last (rt a))))

(define-fun length ((a us_t)) Int (ite (bvule (first1 a) (last1 a))
                                  (+ (- (bv2nat (last1 a)) (bv2nat (first1 a))) 1)
                                  0))

(declare-const value__size Int)

(declare-const object__size Int)

(declare-const component__size Int)

(declare-const alignment Int)

;; value__size_axiom
  (assert (<= 0 value__size))

;; object__size_axiom
  (assert (<= 0 object__size))

;; component__size_axiom
  (assert (<= 0 component__size))

;; alignment_axiom
  (assert (<= 0 alignment))

(define-fun bool_eq1 ((x us_t)
  (y us_t)) Bool (bool_eq (elts x) (to_rep1 (first (rt x)))
                 (to_rep1 (last (rt x))) (elts y) (to_rep1 (first (rt y)))
                 (to_rep1 (last (rt y)))))

(declare-fun user_eq2 (us_t us_t) Bool)

(declare-const dummy2 us_t)

(declare-datatypes ((model__ref 0))
(((model__refqtmk (model__content us_t)))))
(define-fun model__ref_model__content__projection ((a model__ref)) us_t 
  (model__content a))

(declare-const m us_t)

(declare-const attr__ATTRIBUTE_ADDRESS Int)

(define-fun dynamic_invariant ((temp___expr_180 us_t)
  (temp___is_init_176 Bool) (temp___skip_constant_177 Bool)
  (temp___do_toplevel_178 Bool)
  (temp___do_typ_inv_179 Bool)) Bool (=>
                                     (not (= temp___skip_constant_177 true))
                                     (dynamic_property #x0000 #xFFFF
                                     (first1 temp___expr_180)
                                     (last1 temp___expr_180))))

(define-fun dynamic_invariant1 ((temp___expr_18 Int) (temp___is_init_14 Bool)
  (temp___skip_constant_15 Bool) (temp___do_toplevel_16 Bool)
  (temp___do_typ_inv_17 Bool)) Bool (=>
                                    (or (= temp___is_init_14 true)
                                    (<= (- 2147483648) 2147483647)) (in_range
                                    temp___expr_18)))

(define-fun dynamic_invariant2 ((temp___expr_166 (_ BitVec 16))
  (temp___is_init_162 Bool) (temp___skip_constant_163 Bool)
  (temp___do_toplevel_164 Bool) (temp___do_typ_inv_165 Bool)) Bool true)

(assert
;; defqtvc
 ;; File "ring_buf.ads", line 47, characters 0-0
  (not
  (=> (dynamic_invariant m true false true true)
  (=> (< 0 (length m)) (bvule (first1 m) (first1 m))))))
(check-sat)
